
Gurobi 9.5.1 (mac64[x86]) logging started Sat Jun 11 18:23:42 2022

Set parameter LogFile to value "/Users/keyvanmajd/Documents/GitHub/NNRepLayer_v2/demos/walking_example/flow_constraint/repair_net/logs/opt_log_6_11_2022_18_20_3.log"
Gurobi Optimizer version 9.5.1 build v9.5.1rc2 (mac64[x86])
Thread count: 4 physical cores, 8 logical processors, using up to 8 threads
Optimize a model with 21462 rows, 13132 columns and 60086 nonzeros
Model fingerprint: 0x5ee2acef
Model has 76 quadratic objective terms
Variable types: 5932 continuous, 7200 integer (7200 binary)
Coefficient statistics:
  Matrix range     [6e-03, 5e+01]
  Objective range  [5e-01, 2e+00]
  QObjective range [3e-01, 2e+00]
  Bounds range     [1e+00, 5e+01]
  RHS range        [2e-04, 5e+01]
Presolve removed 13099 rows and 5312 columns
Presolve time: 0.19s
Presolved: 8363 rows, 7820 columns, 38763 nonzeros
Presolved model has 76 quadratic objective terms
Variable types: 5420 continuous, 2400 integer (2400 binary)
Found heuristic solution: objective 8.5340616
Root relaxation presolve removed 2400 rows and 2400 columns
Root relaxation presolved: 5963 rows, 5420 columns, 33963 nonzeros
Root relaxation presolved model has 76 quadratic objective terms


Root relaxation: objective 5.431677e+00, 6564 iterations, 0.49 seconds (0.72 work units)

    Nodes    |    Current Node    |     Objective Bounds      |     Work
 Expl Unexpl |  Obj  Depth IntInf | Incumbent    BestBd   Gap | It/Node Time

     0     0    5.43168    0  360    8.53406    5.43168  36.4%     -    1s
H    0     0                       8.5278572    5.43168  36.3%     -    1s
H    0     0                       8.3781593    5.43168  35.2%     -    2s
     0     0    5.43168    0  292    8.37816    5.43168  35.2%     -    2s
H    0     0                       7.3805426    5.43168  26.4%     -    2s
     0     0    5.43168    0  282    7.38054    5.43168  26.4%     -    3s
H    0     0                       7.3732135    5.43168  26.3%     -    3s
     0     0    5.43168    0  270    7.37321    5.43168  26.3%     -    3s
     0     0    5.43168    0  271    7.37321    5.43168  26.3%     -    3s
     0     0    5.43168    0  271    7.37321    5.43168  26.3%     -    4s
H    0     0                       7.3453751    5.43168  26.1%     -    5s
H    0     2                       7.2829112    5.43168  25.4%     -    5s
     0     2    5.43168    0  271    7.28291    5.43168  25.4%     -    5s
H   31    36                       7.1755902    5.43168  24.3%   117    6s
H   34    36                       7.1695457    5.43168  24.2%   107    6s
H   66    71                       6.7004918    5.43168  18.9%  59.0    6s
  1119  1136    6.04554  275  281    6.70049    5.43168  18.9%  40.2   10s
  1982  2096    6.04554  491  181    6.70049    5.43168  18.9%  59.4   15s
H 2249  2260                       6.6946748    5.43168  18.9%  57.2   18s
H 2260  2260                       6.6920039    5.43168  18.8%  57.2   18s
H 2270  2260                       6.6628652    5.43168  18.5%  57.3   18s
H 2271  2259                       6.6344142    5.43168  18.1%  57.5   18s
  2735  2857    6.15865  626  234    6.63441    5.43168  18.1%  58.2   20s
  3296  3301    6.15865  722  276    6.63441    5.43168  18.1%  62.4   25s
H 3324  3304                       6.6198200    5.43168  17.9%  62.4   32s
H 3326  3303                       6.6174619    5.43168  17.9%  62.4   32s
  3704  3700    6.15865  808  204    6.61746    5.43168  17.9%  79.7   36s
  4441  4585    6.20110  945  238    6.61746    5.43168  17.9%  83.6   40s
  4624  4730    6.17538  985  230    6.61746    5.43168  17.9%  82.4   45s
  5133  5093    5.98413  546  271    6.61746    5.43168  17.9%  82.3   51s
H 5134  4839                       6.6104758    5.43168  17.8%  82.3   52s
  5137  4841    5.66167  869  273    6.61048    5.43168  17.8%  82.3   55s
H 5140  4601                       6.6043011    5.43168  17.8%  82.2   60s
H 5140  4370                       6.6036993    5.43168  17.7%  82.2   60s
H 5140  4152                       6.5994383    5.43168  17.7%  82.2   60s
H 5140  3944                       6.5992538    5.43168  17.7%  82.2   60s
H 5140  3747                       6.5953177    5.43168  17.6%  82.2   60s
H 5142  3560                       6.5937237    5.43168  17.6%  82.2   61s
H 5142  3382                       6.5871886    5.43168  17.5%  82.2   61s
H 5142  3213                       6.5850936    5.43168  17.5%  82.2   63s
H 5142  3052                       6.5850935    5.43168  17.5%  82.2   63s

Cutting planes:
  Gomory: 19
  MIR: 21
  Flow cover: 305

Explored 5144 nodes (446490 simplex iterations) in 64.94 seconds (76.54 work units)
Thread count was 8 (of 8 available processors)

Solution count 10: 6.58509 6.58509 6.58719 ... 6.61048

Solve interrupted
Best objective 6.585093491309e+00, best bound 5.431680281496e+00, gap 17.5155%
